120
150
60
45
60
58
53
43
55
60
60
47
49
58
54
48
53
42
49
48
58
44
49
56
47
54
53
54
54
42
49
50
43
47
51
48
60
48
54
51
48
58
59
42
44
43
41
47
54
53
48
55
50
52
48
47
43
55
50
52
55
60
48
45
51
42
58
55
48
41
55
50
53
56
58
52
41
43
48
55
57
47
45
48
47
58
46
40
54
51
45
46
59
48
55
43
51
55
44
46
54
54
50
53
50
57
55
55
40
60
60
42
50
49
43
45
49
60
47
60
58
51
